InboundTrucks  = 12;
OutboundTrucks = 8;
InboundDoors   = 2;
OutboundDoors  = 1;
ReleaseTime    = [30,19,29,26,10,23,14,33,29,1,24,15];
UnloadTime     = [24,8,7,5,15,24,21,10,4,1,17,10];
LoadTime       = [11,10,2,12,4,10,12,12];
TransferTime   = [| 0,0,4,0,0,0,1,0 | 4,0,0,0,3,0,0,6 | 0,0,0,0,4,0,5,0 | 0,0,0,0,0,0,0,0 | 0,0,0,0,0,0,0,0 | 0,2,0,0,3,0,2,0 | 0,5,0,0,0,0,1,0 | 0,0,0,0,0,0,0,0 | 0,0,0,0,2,0,2,2 | 0,0,0,0,0,3,0,4 | 5,0,0,3,0,0,0,0 | 0,0,4,5,0,0,0,3 |];
